(declare-const x0 Real)
(assert (<= 0.0 x0))
(declare-const x1 Real)
(assert (<= 0.0 x1))
(declare-const x2 Real)
(assert (<= 0.0 x2))
(declare-const x3 Real)
(assert (<= 0.0 x3))
(declare-const x4 Real)
(assert (<= 0.0 x4))
(declare-const x5 Real)
(assert (<= 0.0 x5))
(declare-const x6 Real)
(assert (<= 0.0 x6))
(declare-const x7 Real)
(assert (<= 0.0 x7))
(declare-const x8 Real)
(assert (<= 0.0 x8))
(declare-const x9 Real)
(assert (<= 0.0 x9))
(declare-const x10 Real)
(assert (<= 0.0 x10))
(declare-const x11 Real)
(assert (<= 0.0 x11))
(declare-const x12 Real)
(assert (<= 0.0 x12))
(declare-const x13 Real)
(assert (<= 0.0 x13))
(declare-const x14 Real)
(assert (<= 0.0 x14))
(declare-const x15 Real)
(assert (<= 0.0 x15))
(declare-const x16 Real)
(assert (<= 0.0 x16))
(declare-const x17 Real)
(assert (<= 0.0 x17))
(declare-const x18 Real)
(assert (<= 0.0 x18))
(declare-const x19 Real)
(assert (<= 0.0 x19))
(declare-const x20 Real)
(assert (<= 0.0 x20))
(declare-const x21 Real)
(assert (<= 0.0 x21))
(declare-const x22 Real)
(assert (<= 0.0 x22))
(declare-const x23 Real)
(assert (<= 0.0 x23))
(declare-const x24 Real)
(assert (<= 0.0 x24))
(declare-const x25 Real)
(assert (<= 0.0 x25))
(declare-const x26 Real)
(assert (<= 0.0 x26))
(declare-const x27 Real)
(assert (<= 0.0 x27))
(declare-const x28 Real)
(assert (<= 0.0 x28))
(declare-const x29 Real)
(assert (<= 0.0 x29))

(assert (<= (- 170.0) (+ (* (- 0.600000) x15) (* (- 0.300000) x20) (* (- 0.360000) x25))))
(assert (<= (- 170.0) (+ (* (- 0.600000) x16) (* (- 0.300000) x21) (* (- 0.360000) x26))))
(assert (<= (- 170.0) (+ (* (- 0.600000) x17) (* (- 0.300000) x22) (* (- 0.360000) x27))))
(assert (<= (- 170.0) (+ (* (- 0.600000) x18) (* (- 0.300000) x23) (* (- 0.360000) x28))))
(assert (<= (- 170.0) (+ (* (- 0.600000) x19) (* (- 0.300000) x24) (* (- 0.360000) x29))))
(assert (<= (- 170.0) (+ (* (- 0.400000) x15) (* (- 0.100000) x20) (* (- 0.080000) x25))))
(assert (<= (- 170.0) (+ (* (- 0.400000) x16) (* (- 0.100000) x21) (* (- 0.080000) x26))))
(assert (<= (- 170.0) (+ (* (- 0.400000) x17) (* (- 0.100000) x22) (* (- 0.080000) x27))))
(assert (<= (- 170.0) (+ (* (- 0.400000) x18) (* (- 0.100000) x23) (* (- 0.080000) x28))))
(assert (<= (- 170.0) (+ (* (- 0.400000) x19) (* (- 0.100000) x24) (* (- 0.080000) x29))))
(assert (<= 0.0 (+ (* (- 1.0) x0) (* 1.0 x15))))
(assert (<= 0.0 (+ (* (- 1.0) x0) (* (- 1.0) x1) (* 1.0 x15) (* 1.0 x16))))
(assert (<= 0.0 (+ (* (- 1.0) x0) (* (- 1.0) x1) (* (- 1.0) x2) (* 1.0 x15) (* 1.0 x16) (* 1.0 x17))))
(assert (<= 0.0 (+ (* (- 1.0) x0) (* (- 1.0) x1) (* (- 1.0) x2) (* (- 1.0) x3) (* 1.0 x15) (* 1.0 x16) (* 1.0 x17) (* 1.0 x18))))
(assert (<= 0.0 (+ (* (- 1.0) x0) (* (- 1.0) x1) (* (- 1.0) x2) (* (- 1.0) x3) (* (- 1.0) x4) (* 1.0 x15) (* 1.0 x16) (* 1.0 x17) (* 1.0 x18) (* 1.0 x19))))
(assert (<= 0.0 (+ (* (- 1.0) x5) (* 1.0 x20))))
(assert (<= 0.0 (+ (* (- 1.0) x5) (* (- 1.0) x6) (* 1.0 x20) (* 1.0 x21))))
(assert (<= 0.0 (+ (* (- 1.0) x5) (* (- 1.0) x6) (* (- 1.0) x7) (* 1.0 x20) (* 1.0 x21) (* 1.0 x22))))
(assert (<= 0.0 (+ (* (- 1.0) x5) (* (- 1.0) x6) (* (- 1.0) x7) (* (- 1.0) x8) (* 1.0 x20) (* 1.0 x21) (* 1.0 x22) (* 1.0 x23))))
(assert (<= 0.0 (+ (* (- 1.0) x5) (* (- 1.0) x6) (* (- 1.0) x7) (* (- 1.0) x8) (* (- 1.0) x9) (* 1.0 x20) (* 1.0 x21) (* 1.0 x22) (* 1.0 x23) (* 1.0 x24))))
(assert (<= 0.0 (+ (* (- 1.0) x10) (* 1.0 x25))))
(assert (<= 0.0 (+ (* (- 1.0) x10) (* (- 1.0) x11) (* 1.0 x25) (* 1.0 x26))))
(assert (<= 0.0 (+ (* (- 1.0) x10) (* (- 1.0) x11) (* (- 1.0) x12) (* 1.0 x25) (* 1.0 x26) (* 1.0 x27))))
(assert (<= 0.0 (+ (* (- 1.0) x10) (* (- 1.0) x11) (* (- 1.0) x12) (* (- 1.0) x13) (* 1.0 x25) (* 1.0 x26) (* 1.0 x27) (* 1.0 x28))))
(assert (<= 0.0 (+ (* (- 1.0) x10) (* (- 1.0) x11) (* (- 1.0) x12) (* (- 1.0) x13) (* (- 1.0) x14) (* 1.0 x25) (* 1.0 x26) (* 1.0 x27) (* 1.0 x28) (* 1.0 x29))))

(minimize
	(+ (* (- 1340.0) x0) (* (- 1230.0) x1) (* (- 1150.0) x2) (* (- 1130.0) x3) (* (- 1030.0) x4) (* (- 690.0) x5) (* (- 645.0) x6) (* (- 585.0) x7) (* (- 620.0) x8) (* (- 570.0) x9) (* (- 1225.0) x10) (* (- 1150.0) x11) (* (- 1150.0) x12) (* (- 1060.0) x13) (* (- 970.0) x14) (* 770.0 x15) (* 690.0 x16) (* 610.0 x17) (* 550.0 x18) (* 450.0 x19) (* 385.0 x20) (* 340.0 x21) (* 295.0 x22) (* 280.0 x23) (* 230.0 x24) (* 700.0 x25) (* 625.0 x26) (* 550.0 x27) (* 480.0 x28) (* 390.0 x29) (+ (* 0.300000 (^ x0 2.0)) (* 0.020000 (^ x15 2.0)) (* 0.005000 (^ (- x15 x0) 2.0)) (* 0.100000 (^ x5 2.0)) (* 0.010000 (^ x20 2.0)) (* 0.005000 (^ (- x20 x5) 2.0)) (* 0.200000 (^ x10 2.0)) (* 0.015000 (^ x25 2.0)) (* 0.005000 (^ (- x25 x10) 2.0)) (* 0.300000 (^ x1 2.0)) (* 0.200000 (^ (- x16 x0) 2.0)) (* 0.050000 (^ (- x16 x1) 2.0)) (* 0.100000 (^ x6 2.0)) (* 0.100000 (^ (- x21 x5) 2.0)) (* 0.050000 (^ (- x21 x6) 2.0)) (* 0.200000 (^ x11 2.0)) (* 0.150000 (^ (- x26 x10) 2.0)) (* 0.050000 (^ (- x26 x11) 2.0)) (* 0.300000 (^ x2 2.0)) (* 0.250000 (^ (- x17 x1) 2.0)) (* 0.060000 (^ (- x17 x2) 2.0)) (* 0.100000 (^ x7 2.0)) (* 0.100000 (^ (- x22 x6) 2.0)) (* 0.060000 (^ (- x22 x7) 2.0)) (* 0.200000 (^ x12 2.0)) (* 0.150000 (^ (- x27 x11) 2.0)) (* 0.060000 (^ (- x27 x12) 2.0)) (* 0.300000 (^ x3 2.0)) (* 0.250000 (^ (- x18 x2) 2.0)) (* 0.060000 (^ (- x18 x3) 2.0)) (* 0.100000 (^ x8 2.0)) (* 0.150000 (^ (- x23 x7) 2.0)) (* 0.060000 (^ (- x23 x8) 2.0)) (* 0.200000 (^ x13 2.0)) (* 0.150000 (^ (- x28 x12) 2.0)) (* 0.060000 (^ (- x28 x13) 2.0)) (* 0.300000 (^ x4 2.0)) (* 0.250000 (^ (- x19 x3) 2.0)) (* 0.060000 (^ (- x19 x4) 2.0)) (* 0.100000 (^ x9 2.0)) (* 0.150000 (^ (- x24 x8) 2.0)) (* 0.060000 (^ (- x24 x9) 2.0)) (* 0.200000 (^ x14 2.0)) (* 0.150000 (^ (- x29 x13) 2.0)) (* 0.060000 (^ (- x29 x14) 2.0))))
)
(check-sat)
(get-objectives)
(exit)

